c CNF generator v0.9
p cnf 50 50
-23 -22 8 0
45 31 42 0
-28 27 25 0
33 -39 -43 0
45 16 -34 0
46 -29 30 0
-15 5 33 0
-47 46 12 0
-40 43 -26 0
30 30 18 0
47 -36 -7 0
44 -14 -7 0
-31 -5 10 0
-41 -27 23 0
43 -2 -49 0
27 -47 50 0
48 39 3 0
41 -35 -43 0
44 30 -4 0
-23 -3 41 0
32 3 -39 0
-24 33 17 0
1 29 -36 0
-13 21 -31 0
14 46 44 0
24 -39 -15 0
-8 -24 24 0
-28 40 -21 0
-11 26 -24 0
-6 2 47 0
-48 -24 -32 0
44 13 38 0
50 -23 -13 0
46 44 -31 0
19 17 -44 0
-11 -44 -41 0
-15 -11 43 0
6 -8 24 0
38 10 -1 0
43 -12 -23 0
-45 45 -22 0
41 -37 -15 0
17 50 -46 0
14 17 -48 0
14 40 -16 0
-27 1 -18 0
-16 -20 29 0
35 33 -41 0
30 -19 -11 0
-22 -23 3 0
